NAME : rnd39_50.tsp.tsp.optbc.tour
TYPE : TOUR
DIMENSION : 50
TOUR_SECTION
1
13
21
6
38
46
3
27
39
20
11
29
10
42
15
8
48
25
4
37
35
40
26
16
9
7
33
22
47
50
2
43
14
23
41
49
32
34
30
28
19
24
18
12
44
45
17
5
36
31
-1